10
40
1711
1661
1451
1297
1201
1067
717
663
522
146
20	914
43	597
42	234
146	737
245	615
455	708
541	837
820	516
897	553
980	602
983	594
997	555
509	267
427	218
810	410
891	402
903	326
634	227
634	133
259	10
38	719
32	524
60	944
207	698
260	853
314	840
229	499
447	767
672	806
641	732
426	420
938	911
917	890
219	131
441	129
807	232
887	253
846	232
332	62
932	81
